p cnf 70 35
60 -2 35 0
-56 54 -45 0
-17 -18 6 0
25 -29 -62 0
-8 37 -30 0
14 10 18 0
-24 -7 52 0
43 54 -27 0
-18 -34 -40 0
59 52 35 0
-7 41 25 0
-43 -10 -60 0
42 -7 47 0
-42 -13 61 0
22 52 -8 0
-21 34 47 0
-63 -32 -46 0
32 43 -56 0
33 62 68 0
-46 48 23 0
61 -23 33 0
-19 54 -11 0
-51 8 39 0
-1 -6 7 0
47 69 61 0
-66 42 3 0
36 51 -31 0
-70 55 -7 0
42 32 16 0
-65 26 52 0
25 17 -39 0
50 1 -55 0
65 -42 38 0
2 -51 11 0
24 -41 39 0
